


































































































43 11 25 0 38 
7 21 54 9 24 
73 4 12 3 64 
33 5 62 20 58 
44 15 32 74 48 
50 6 49 34 16 
2 10 30 42 17 
51 60 76 71 19 
1 55 35 68 
40 13 22 41 
39 56 14 28 46 
8 59 23 47 75 
67 26 66 45 36 
70 53 52 69 72 
31 27 29 63 65 
37 61 57 18 
